analyze/results_flowersnark/final_miplib_symretope_if_extended_generating_set_cpx_v802__settings_final_nosym_norestarts__0__square31.mps.gz.sol
solution status: optimal solution found
objective value:                                   15
x_1_1_9                                             1 	(obj:1)
x_1_10_8                                            1 	(obj:1)
x_1_18_3                                            1 	(obj:1)
x_1_21_3                                            1 	(obj:1)
x_1_24_8                                            1 	(obj:1)
x_4_18_6                                            1 	(obj:1)
x_9_10_7                                            1 	(obj:1)
x_9_17_1                                            1 	(obj:1)
x_9_24_8                            0.999999999999999 	(obj:1)
x_10_1_3                                            1 	(obj:1)
x_10_4_6                                            1 	(obj:1)
x_10_17_7                                           1 	(obj:1)
x_13_1_3                                            1 	(obj:1)
x_16_1_16                           0.999999999999998 	(obj:1)
x_17_17_15                                          1 	(obj:1)
y_16                                0.999999999999998 	(obj:0)
y_15                                                1 	(obj:0)
y_9                                                 1 	(obj:0)
y_8                                                 3 	(obj:0)
y_7                                                 2 	(obj:0)
y_6                                                 2 	(obj:0)
y_3                                                 4 	(obj:0)
y_1                                                 1 	(obj:0)
