analyze/results_flowersnark/final_miplib_symretope_if_extended_generating_set_cpx_v802__settings_final_nosym_norestarts__0__square31.mps.gz.out
FILENAME:   /home/mcs001/s132664/testsets/IP/miplib2017/square31.mps.gz
SETTINGS:   settings_final_nosym_norestarts
TIMELIMIT:  7200
OUTPUTNAME: final_miplib_symretope_if_extended_generating_set_cpx_v802__settings_final_nosym_norestarts__0__
BINNAME:    bin/sbcs.linux.x86_64.gnu.opt.cpx
BASENAME:   square31.mps.gz
SEED:       0
@01 /home/mcs001/s132664/testsets/IP/miplib2017/square31.mps.gz ===========
@02 square31.mps.gz
@03 1686649263
SCIP version 8.0.2 [precision: 8 byte] [memory: block] [mode: optimized] [LP solver: CPLEX 20.1.0.0] [GitHash: 5f0473c]
Copyright (C) 2002-2022 Konrad-Zuse-Zentrum fuer Informationstechnik Berlin (ZIB)

Symretope propagation methods - (c) Jasper van Doornmalen, Christopher Hojny.
[GitHash: 2fd0484]

reading parameter file <../settings/settings_final_nosym_norestarts.set> ...

Changed settings:
limits/time = 7200
limits/restarts = 0
misc/usesymmetry = 0
constraints/orbisack/sepafreq = -1
constraints/symresack/sepafreq = -1
propagating/symmetry/detectsubgroups = FALSE
propagating/symmetry/usesymretopes = FALSE
propagating/symmetry/relabelsymretopes = 0
propagating/symmetry/ofsymcomptiming = 0
constraints/symretope/sepafreq = -1
constraints/symretope/peek = FALSE


solving problem ...

original problem has 28860 variables (28830 bin, 30 int, 0 impl, 0 cont) and 19435 constraints
presolving:
(round 1, fast)       18415 del vars, 18415 del conss, 0 add conss, 18445 chg bounds, 0 chg sides, 0 chg coeffs, 0 upgd conss, 0 impls, 961 clqs
(round 2, exhaustive) 18415 del vars, 18415 del conss, 0 add conss, 18445 chg bounds, 0 chg sides, 0 chg coeffs, 961 upgd conss, 0 impls, 961 clqs
(round 3, exhaustive) 18415 del vars, 18434 del conss, 0 add conss, 18445 chg bounds, 19 chg sides, 0 chg coeffs, 961 upgd conss, 0 impls, 961 clqs
   (16.7s) probing: 1000/10415 (9.6%) - 0 fixings, 0 aggregations, 22346 implications, 0 bound changes
   (16.8s) probing: 1001/10415 (9.6%) - 0 fixings, 0 aggregations, 22372 implications, 0 bound changes
   (16.8s) probing aborted: 1000/1000 successive useless probings
presolving (4 rounds: 4 fast, 3 medium, 3 exhaustive):
 18415 deleted vars, 18434 deleted constraints, 0 added constraints, 18445 tightened bounds, 0 added holes, 19 changed sides, 0 changed coefficients
 22231 implications, 1102 cliques
presolved problem has 10445 variables (10415 bin, 30 int, 0 impl, 0 cont) and 1001 constraints
    961 constraints of type <setppc>
     40 constraints of type <linear>
transformed objective value is always integral (scale: 1)
Presolving Time: 16.82

 time | node  | left  |LP iter|LP it/n|mem/heur|mdpt |vars |cons |rows |cuts |sepa|confs|strbr|  dualbound   | primalbound  |  gap   | compl. 
p18.3s|     1 |     0 |     0 |     - |  clique|   0 |  10k|1001 |1001 |   0 |  0 |   0 |   0 | 4.000000e+00 | 3.400000e+01 | 750.00%| unknown
 32.7s|     1 |     0 |   801 |     - |  1548M |   0 |  10k|1027 |1001 |   0 |  0 |  41 |   0 | 8.500000e+00 | 3.400000e+01 | 300.00%| unknown
  178s|     1 |     2 | 18091 |     - |  1552M |   0 |  10k|1027 |1001 |   0 |  2 |  41 |  60 | 8.799056e+00 | 3.400000e+01 | 286.41%| unknown
* 183s|     2 |     1 | 19426 |18625.0 |strongbr|   1 |  10k|1013 |1001 |   0 |  1 |  41 |  72 | 8.799056e+00 | 1.500000e+01 |  70.47%| unknown
  336s|   100 |    19 | 79770 | 797.7 |  1562M |  23 |  10k|1060 |1001 |   0 |  2 | 101 | 257 | 9.172298e+00 | 1.500000e+01 |  63.54%|  72.43%
  423s|   200 |    53 |184113 | 921.2 |  1577M |  32 |  10k|1144 |1001 |   5 |  2 | 201 | 321 | 9.818182e+00 | 1.500000e+01 |  52.78%|  72.49%
  489s|   300 |    77 |261325 | 871.3 |  1585M |  44 |  10k|1191 |1001 |   6 |  2 | 303 | 401 | 1.012802e+01 | 1.500000e+01 |  48.10%|  72.64%
  537s|   400 |   101 |330665 | 826.7 |  1592M |  47 |  10k|1188 |1001 |   6 |  0 | 360 | 454 | 1.064453e+01 | 1.500000e+01 |  40.92%|  72.70%
  582s|   500 |   119 |389671 | 779.3 |  1607M |  50 |  10k|1323 |1001 |   6 |  0 | 586 | 504 | 1.068360e+01 | 1.500000e+01 |  40.40%|  72.73%
  622s|   600 |   125 |448065 | 746.7 |  1615M |  53 |  10k|1331 |1001 |   6 |  0 | 691 | 568 | 1.068360e+01 | 1.500000e+01 |  40.40%|  72.75%
  661s|   700 |   127 |502884 | 718.3 |  1620M |  58 |  10k|1330 |1001 |   6 |  0 | 779 | 636 | 1.119941e+01 | 1.500000e+01 |  33.94%|  72.77%
  695s|   800 |   129 |553979 | 692.3 |  1625M |  59 |  10k|1375 |1001 |   6 |  2 | 891 | 678 | 1.129746e+01 | 1.500000e+01 |  32.77%|  72.81%
  722s|   900 |   129 |599692 | 666.2 |  1630M |  61 |  10k|1356 |1001 |   6 |  0 | 929 | 705 | 1.180087e+01 | 1.500000e+01 |  27.11%|  72.82%
  754s|  1000 |   129 |639791 | 639.6 |  1635M |  65 |  10k|1429 |1001 |   6 |  4 |1076 | 764 | 1.189647e+01 | 1.500000e+01 |  26.09%|  72.84%
  787s|  1100 |   125 |683706 | 621.4 |  1641M |  68 |  10k|1522 |1001 |   6 |  0 |1230 | 830 | 1.197991e+01 | 1.500000e+01 |  25.21%|  72.85%
 time | node  | left  |LP iter|LP it/n|mem/heur|mdpt |vars |cons |rows |cuts |sepa|confs|strbr|  dualbound   | primalbound  |  gap   | compl. 
  816s|  1200 |   119 |722861 | 602.2 |  1649M |  68 |  10k|1563 |1001 |   6 |  0 |1394 | 915 | 1.197991e+01 | 1.500000e+01 |  25.21%|  72.85%
  842s|  1300 |   107 |759006 | 583.7 |  1657M |  75 |  10k|1555 |1001 |   6 |  0 |1534 | 994 | 1.225549e+01 | 1.500000e+01 |  22.39%|  73.38%
  859s|  1400 |   103 |785512 | 560.9 |  1661M |  75 |  10k|1537 |1001 |   6 |  2 |1576 |1021 | 1.228718e+01 | 1.500000e+01 |  22.08%|  73.51%
  887s|  1500 |    91 |819296 | 546.0 |  1666M |  75 |  10k|1588 |1001 |   6 |  0 |1741 |1098 | 1.237723e+01 | 1.500000e+01 |  21.19%|  73.55%
  917s|  1600 |    79 |861211 | 538.1 |  1673M |  76 |  10k|1706 |1001 |   6 |  0 |1990 |1189 | 1.254613e+01 | 1.500000e+01 |  19.56%|  73.57%
  957s|  1700 |    31 |902120 | 530.5 |  1686M |  76 |  10k|1816 |1001 |   6 |  0 |2388 |1350 | 1.276876e+01 | 1.500000e+01 |  17.47%|  73.62%

SCIP Status        : problem is solved [optimal solution found]
Solving Time (sec) : 967.28
Solving Nodes      : 1735
Primal Bound       : +1.50000000000000e+01 (2 solutions)
Dual Bound         : +1.50000000000000e+01
Gap                : 0.00 %
SCIP Status        : problem is solved [optimal solution found]
Total Time         :     969.44
  solving          :     967.28
  presolving       :      16.82 (included in solving)
  reading          :       2.17
  copying          :       1.23 (12 #copies) (minimal 0.10, maximal 0.11, average 0.10)
Original Problem   :
  Problem name     : square31
  Variables        : 28860 (28830 binary, 30 integer, 0 implicit integer, 0 continuous)
  Constraints      : 19435 initial, 19435 maximal
  Objective        : minimize, 28830 non-zeros (abs.min = 1, abs.max = 1)
Presolved Problem  :
  Problem name     : t_square31
  Variables        : 10445 (10415 binary, 30 integer, 0 implicit integer, 0 continuous)
  Constraints      : 1001 initial, 1866 maximal
  Objective        : minimize, 10295 non-zeros (abs.min = 1, abs.max = 1)
  Nonzeros         : 1128221 constraint, 733352 clique table
Presolvers         :   ExecTime  SetupTime  Calls  FixedVars   AggrVars   ChgTypes  ChgBounds   AddHoles    DelCons    AddCons   ChgSides   ChgCoefs
  boundshift       :       0.00       0.00      0          0          0          0          0          0          0          0          0          0
  convertinttobin  :       0.00       0.00      0          0          0          0          0          0          0          0          0          0
  domcol           :       0.19       0.00      1          0          0          0          0          0          0          0          0          0
  dualagg          :       0.00       0.00      0          0          0          0          0          0          0          0          0          0
  dualcomp         :       0.00       0.00      0          0          0          0          0          0          0          0          0          0
  dualinfer        :       0.00       0.00      0          0          0          0          0          0          0          0          0          0
  dualsparsify     :       0.93       0.00      1          0          0          0          0          0          0          0          0          0
  gateextraction   :       0.00       0.00      0          0          0          0          0          0          0          0          0          0
  implics          :       0.00       0.00      3          0          0          0          0          0          0          0          0          0
  inttobinary      :       0.00       0.00      4          0          0          0          0          0          0          0          0          0
  qpkktref         :       0.00       0.00      0          0          0          0          0          0          0          0          0          0
  redvub           :       0.00       0.00      0          0          0          0          0          0          0          0          0          0
  sparsify         :       0.66       0.00      1          0          0          0          0          0          0          0          0          0
  stuffing         :       0.00       0.00      0          0          0          0          0          0          0          0          0          0
  trivial          :       0.00       0.00      4          0          0          0          0          0          0          0          0          0
  tworowbnd        :       0.00       0.00      0          0          0          0          0          0          0          0          0          0
  dualfix          :       0.00       0.00      4          0          0          0          0          0          0          0          0          0
  genvbounds       :       0.00       0.00      0          0          0          0          0          0          0          0          0          0
  probing          :      10.18       0.00      1          0          0          0          0          0          0          0          0          0
  pseudoobj        :       0.00       0.00      0          0          0          0          0          0          0          0          0          0
  symmetry         :       0.00       0.00      0          0          0          0          0          0          0          0          0          0
  vbounds          :       0.02       0.00      1          0          0          0          0          0          0          0          0          0
  knapsack         :       0.00       0.00      0          0          0          0          0          0          0          0          0          0
  setppc           :       0.38       0.01      6          0          0          0          0          0          0          0          0          0
  linear           :       4.00       0.73      7      18415          0          0      18445          0      18434          0         19          0
  logicor          :       0.00       0.00      0          0          0          0          0          0          0          0          0          0
  bounddisjunction :       0.00       0.00      0          0          0          0          0          0          0          0          0          0
  benders          :       0.00       0.00      0          0          0          0          0          0          0          0          0          0
  components       :       0.18       0.00      1          0          0          0          0          0          0          0          0          0
  root node        :          -          -      -       1630          -          -       1749          -          -          -          -          -
Constraints        :     Number  MaxNumber  #Separate #Propagate    #EnfoLP    #EnfoRelax  #EnfoPS    #Check   #ResProp    Cutoffs    DomReds       Cuts    Applied      Conss   Children
  benderslp        :          0          0          0          0       1064          0          0         58          0          0          0          0          0          0          0
  integral         :          0          0          0          0       1064          0          0         58          0          1        966          0          0       1669       1734
  knapsack         :          0+        18          0       6857          0          0          0          0        192          0        422          0          0          0          0
  setppc           :        961+       983          1      16663          0          0          0         52     346319        160     469108          0          0          0          0
  linear           :         40+        41          1      16503          0          0          0          2      76354         12      30600          0          0          0          0
  logicor          :          0+       163          1       3225          0          0          0          0        147          3         26          0          0          0          0
  bounddisjunction :          0+       693          0       4236          0          0          0          0        268         12         21          0          0          0          0
  benders          :          0          0          0          0          0          0          0          3          0          0          0          0          0          0          0
  countsols        :          0          0          0          0          0          0          0          3          0          0          0          0          0          0          0
  components       :          0          0          0          0          0          0          0          0          0          0          0          0          0          0          0
Constraint Timings :  TotalTime  SetupTime   Separate  Propagate     EnfoLP     EnfoPS     EnfoRelax   Check    ResProp    SB-Prop
  benderslp        :       0.00       0.00       0.00       0.00       0.00       0.00       0.00       0.00       0.00       0.00
  integral         :     435.93       0.00       0.00       0.00     435.91       0.00       0.00       0.01       0.00       0.00
  knapsack         :       0.03       0.00       0.00       0.02       0.00       0.00       0.00       0.00       0.00       0.01
  setppc           :       8.38       0.01       0.08       2.79       0.00       0.00       0.00       0.04       0.86       4.61
  linear           :       4.31       0.73       0.00       2.15       0.00       0.00       0.00       0.00       0.95       0.47
  logicor          :       0.06       0.00       0.00       0.03       0.00       0.00       0.00       0.00       0.02       0.02
  bounddisjunction :       0.32       0.00       0.00       0.16       0.00       0.00       0.00       0.00       0.04       0.12
  benders          :       0.00       0.00       0.00       0.00       0.00       0.00       0.00       0.00       0.00       0.00
  countsols        :       0.00       0.00       0.00       0.00       0.00       0.00       0.00       0.00       0.00       0.00
  components       :       0.00       0.00       0.00       0.00       0.00       0.00       0.00       0.00       0.00       0.00
Propagators        : #Propagate   #ResProp    Cutoffs    DomReds
  dualfix          :          3          0          0          0
  genvbounds       :          0          0          0          0
  nlobbt           :          0          0          0          0
  obbt             :          0          0          0          0
  probing          :          0          0          0          0
  pseudoobj        :       6726          0          0          2
  redcost          :       4109          0          0     677174
  rootredcost      :          2          0          0        654
  symmetry         :          0          0          0          0
  vbounds          :       7333          0          0          0
Propagator Timings :  TotalTime  SetupTime   Presolve  Propagate    ResProp    SB-Prop
  dualfix          :       0.00       0.00       0.00       0.00       0.00       0.00
  genvbounds       :       0.01       0.00       0.00       0.01       0.00       0.00
  nlobbt           :       0.00       0.00       0.00       0.00       0.00       0.00
  obbt             :       0.00       0.00       0.00       0.00       0.00       0.00
  probing          :      10.18       0.00      10.18       0.00       0.00       0.00
  pseudoobj        :       0.06       0.00       0.00       0.06       0.00       0.00
  redcost          :       3.63       0.00       0.00       3.63       0.00       0.00
  rootredcost      :       0.07       0.00       0.00       0.07       0.00       0.00
  symmetry         :       0.00       0.00       0.00       0.00       0.00       0.00
  vbounds          :       0.08       0.00       0.02       0.05       0.00       0.01
Conflict Analysis  :       Time      Calls    Success    DomReds  Conflicts   Literals    Reconvs ReconvLits   Dualrays   Nonzeros   LP Iters   (pool size: [10000,10000])
  propagation      :       0.59        177        173          -        924     1305.2          1      980.0          -          -          -
  infeasible LP    :       4.63        178         24          -        111     1024.6          0        0.0         19      347.2          0
  bound exceed. LP :      98.35        712        691          -       3463      762.4         29      185.5         60        1.0       9092
  strong branching :       0.00          0          0          -          0        0.0          0        0.0          -          -          0
  pseudo solution  :       0.00          0          0          -          0        0.0          0        0.0          -          -          -
  applied globally :      63.03          -          -         60       2300      525.8          -          -         79          -          -
  applied locally  :          -          -          -          0         97     2170.0          -          -          0          -          -
Separators         :   ExecTime  SetupTime      Calls  RootCalls    Cutoffs    DomReds  FoundCuts ViaPoolAdd  DirectAdd    Applied ViaPoolApp  DirectApp      Conss
  cut pool         :       0.00          -         84          0          -          -          1          1          -          -          -          -          -    (maximal pool size:          1)
  aggregation      :       0.81       0.00         62          1          0          0          0          0          0          0          0          0          0
  > cmir           :          -          -          -          -          -          -          -          0          0          0          0          0          -
  > flowcover      :          -          -          -          -          -          -          -          0          0          0          0          0          -
  > knapsackcover  :          -          -          -          -          -          -          -          0          0          0          0          0          -
  cgmip            :       0.00       0.00          0          0          0          0          0          0          0          0          0          0          0
  clique           :       5.42       0.00          1          1          0          0          0          0          0          0          0          0          0
  closecuts        :       0.00       0.00          0          0          0          0          0          0          0          0          0          0          0
  convexproj       :       0.00       0.00          0          0          0          0          0          0          0          0          0          0          0
  disjunctive      :       0.00       0.00          0          0          0          0          0          0          0          0          0          0          0
  eccuts           :       0.00       0.00          0          0          0          0          0          0          0          0          0          0          0
  gauge            :       0.00       0.00          0          0          0          0          0          0          0          0          0          0          0
  gomory           :       1.94       0.00         60          1          0          0          0          0          0          0          0          0          0
  > gomorymi       :          -          -          -          -          -          -          -          0          0          0          0          0          -
  > strongcg       :          -          -          -          -          -          -          -          0          0          0          0          0          -
  impliedbounds    :       0.04       0.00         62          1          0          0          0          0          0          0          0          0          0
  interminor       :       0.00       0.00          0          0          0          0          0          0          0          0          0          0          0
  intobj           :       0.00       0.00          0          0          0          0          0          0          0          0          0          0          0
  mcf              :       0.01       0.00          1          1          0          0          0          0          0          0          0          0          0
  minor            :       0.00       0.00          0          0          0          0          0          0          0          0          0          0          0
  mixing           :       0.00       0.00         62          1          0          0          0          0          0          0          0          0          0
  oddcycle         :       0.00       0.00          0          0          0          0          0          0          0          0          0          0          0
  rapidlearning    :       0.01       0.00          0          0          0          0          0          0          0          0          0          0          0
  rlt              :       0.00       0.00          1          1          0          0          0          0          0          0          0          0          0
  zerohalf         :       0.36       0.00         60          1          0          0          6          1          5          6          1          5          0
Cutselectors       :   ExecTime  SetupTime      Calls  RootCalls   Selected     Forced   Filtered  RootSelec   RootForc   RootFilt 
  hybrid           :       0.00       0.00          6          0          6          0          0          0          0          0
Pricers            :   ExecTime  SetupTime      Calls       Vars
  problem variables:       0.00          -          0          0
Branching Rules    :   ExecTime  SetupTime   BranchLP  BranchExt   BranchPS    Cutoffs    DomReds       Cuts      Conss   Children
  allfullstrong    :       0.00       0.00          0          0          0          0          0          0          0          0
  cloud            :       0.00       0.00          0          0          0          0          0          0          0          0
  distribution     :       0.00       0.00          0          0          0          0          0          0          0          0
  fullstrong       :       0.00       0.00          0          0          0          0          0          0          0          0
  inference        :       0.00       0.00          0          0          0          0          0          0          0          0
  leastinf         :       0.00       0.00          0          0          0          0          0          0          0          0
  lookahead        :       0.00       0.00          0          0          0          0          0          0          0          0
  mostinf          :       0.00       0.00          0          0          0          0          0          0          0          0
  multaggr         :       0.00       0.00          0          0          0          0          0          0          0          0
  nodereopt        :       0.00       0.00          0          0          0          0          0          0          0          0
  pscost           :       0.00       0.00          0          0          0          0          0          0          0          0
  random           :       0.00       0.00          0          0          0          0          0          0          0          0
  relpscost        :     435.91       0.00       1064          0          0          1        966          0       1922       1734
  vanillafullstrong:       0.00       0.00          0          0          0          0          0          0          0          0
Primal Heuristics  :   ExecTime  SetupTime      Calls      Found       Best
  LP solutions     :       0.00          -          -          0          0
  relax solutions  :       0.00          -          -          0          0
  pseudo solutions :       0.00          -          -          0          0
  strong branching :       0.01          -          -          1          1
  actconsdiving    :       0.00       0.00          0          0          0
  adaptivediving   :       1.11       0.00          4          0          0
  alns             :       1.68       0.00          5          0          0
  bound            :       0.00       0.00          0          0          0
  clique           :       0.39       0.00          1          1          1
  coefdiving       :       0.00       0.00          0          0          0
  completesol      :       0.00       0.00          0          0          0
  conflictdiving   :       6.78       0.00          3          0          0
  crossover        :       0.00       0.00          0          0          0
  dins             :       0.00       0.00          0          0          0
  distributiondivin:       2.67       0.00          3          0          0
  dps              :       0.00       0.00          0          0          0
  dualval          :       0.00       0.00          0          0          0
  farkasdiving     :       0.00       0.00          0          0          0
  feaspump         :      69.17       0.00          2          0          0
  fixandinfer      :       0.00       0.00          0          0          0
  fracdiving       :       0.49       0.00          3          0          0
  gins             :       0.20       0.00          0          0          0
  guideddiving     :       0.15       0.00          3          0          0
  indicator        :       0.00       0.00          0          0          0
  intdiving        :       0.00       0.00          0          0          0
  intshifting      :       0.00       0.00          0          0          0
  linesearchdiving :       0.39       0.00          3          0          0
  localbranching   :       0.00       0.00          0          0          0
  locks            :       0.16       0.00          1          0          0
  lpface           :       0.00       0.00          0          0          0
  mpec             :       0.00       0.00          0          0          0
  multistart       :       0.00       0.00          0          0          0
  mutation         :       0.00       0.00          0          0          0
  nlpdiving        :       0.00       0.00          0          0          0
  objpscostdiving  :       0.59       0.00          2          0          0
  octane           :       0.00       0.00          0          0          0
  ofins            :       0.00       0.00          0          0          0
  oneopt           :       0.02       0.00          2          0          0
  padm             :       0.00       0.00          0          0          0
  proximity        :       0.00       0.00          0          0          0
  pscostdiving     :       1.21       0.00          3          0          0
  randrounding     :       0.11       0.00         47          0          0
  rens             :       0.16       0.00          1          0          0
  reoptsols        :       0.00       0.00          0          0          0
  repair           :       0.00       0.00          0          0          0
  rins             :       1.29       0.00          6          0          0
  rootsoldiving    :       0.89       0.00          2          0          0
  rounding         :       1.73       0.00        404          0          0
  shiftandpropagate:       0.00       0.00          0          0          0
  shifting         :       2.98       0.00        106          0          0
  simplerounding   :       0.00       0.00          0          0          0
  subnlp           :       0.00       0.00          0          0          0
  trivial          :       0.05       0.00          2          0          0
  trivialnegation  :       0.00       0.00          0          0          0
  trustregion      :       0.00       0.00          0          0          0
  trysol           :       0.00       0.00          0          0          0
  twoopt           :       0.00       0.00          0          0          0
  undercover       :       0.00       0.00          0          0          0
  vbounds          :      13.29       0.00          1          0          0
  veclendiving     :       1.86       0.00          3          0          0
  zeroobj          :       0.00       0.00          0          0          0
  zirounding       :       0.13       0.00        867          0          0
  other solutions  :          -          -          -          0          -
LP                 :       Time      Calls Iterations  Iter/call   Iter/sec  Time-0-It Calls-0-It    ItLimit
  primal LP        :       0.00          0          0       0.00          -       0.00          0
  dual LP          :     361.19       3883     889064     474.42    2461.47       8.95       2009
  lex dual LP      :       0.00          0          0       0.00          -
  barrier LP       :       0.00          0          0       0.00          -       0.00          0
  resolve instable :       0.00          0          0       0.00          -
  diving/probing LP:      79.77         36      22695     630.42     284.52
  strong branching :     330.68       1380     592138     429.09    1790.66          -          -        758
    (at root node) :          -         60      48573     809.55          -
  conflict analysis:      25.47        909       9092      10.00     357.00
B&B Tree           :
  number of runs   :          1
  nodes            :       1735 (867 internal, 868 leaves)
  feasible leaves  :          0
  infeas. leaves   :        132
  objective leaves :        736
  nodes (total)    :       1735 (867 internal, 868 leaves)
  nodes left       :          0
  max depth        :         76
  max depth (total):         76
  backtracks       :        344 (19.8%)
  early backtracks :          0 (0.0%)
  nodes exc. ref.  :          0 (0.0%)
  delayed cutoffs  :          0
  repropagations   :         64 (36 domain reductions, 0 cutoffs)
  avg switch length:       8.80
  switching time   :       5.72
Root Node          :
  First LP value   : +8.50000000000001e+00
  First LP Iters   :        801 (895.70 Iter/sec)
  First LP Time    :       0.89
  Final Dual Bound : +8.79905589308468e+00
  Final Root Iters :        801
  Root LP Estimate : +1.31427431300477e+01
Solution           :
  Solutions found  :          2 (2 improvements)
  First Solution   : +3.40000000000000e+01   (in run 1, after 1 nodes, 18.30 seconds, depth 6, found by <clique>)
  Gap First Sol.   :     750.00 %
  Gap Last Sol.    :      70.47 %
  Primal Bound     : +1.50000000000000e+01   (in run 1, after 2 nodes, 182.69 seconds, depth 3, found by <relaxation>)
  Dual Bound       : +1.50000000000000e+01
  Gap              :       0.00 %
Integrals          :      Total       Avg%
  primal-dual      :   37011.02      38.26
  primal-ref       :          -          - (not evaluated)
  dual-ref         :          -          - (not evaluated)
written solution information to file <results/final_miplib_symretope_if_extended_generating_set_cpx_v802__settings_final_nosym_norestarts__0__square31.mps.gz.sol>
@04 1686650234
